WARNING: for repeatability, setting FPU to use double precision
============================[ Problem Statistics ]=============================
|                                                                             |
|  Number of variables:        141429                                         |
|  Number of clauses:          646015                                         |
|  Parse time:                   0.13 s                                       |
|                                                                             |
c ============================[ Search Statistics ]==============================
c | Conflicts |          ORIGINAL         |          LEARNT          | Progress |
c |           |    Vars  Clauses Literals |    Limit  Clauses Lit/Cl |          |
c ===============================================================================
c Switched to VSIDS.
c Switched to LRB.
c Switched to VSIDS.
c Switched to LRB.
c Switched to VSIDS.
c Switched to LRB.
c Switched to VSIDS.
c Switched to LRB.
c Switched to VSIDS.
c Switched to LRB.
c Switched to VSIDS.
c Switched to LRB.
c Switched to VSIDS.
c Switched to LRB.
c Switched to VSIDS.
c Switched to LRB.
c Switched to VSIDS.
c Switched to LRB.
c Switched to VSIDS.
c Switched to LRB.
c Switched to VSIDS.
c Switched to LRB.
c Switched to VSIDS.
c Switched to LRB.
c Switched to VSIDS.
c Switched to LRB.
c Switched to VSIDS.
c Switched to LRB.
c Switched to VSIDS.
c Switched to LRB.
c ===============================================================================
restarts                  : 28821
conflicts                 : 4391922        (1234 /sec)
decisions                 : 46576015       (0.00 % random) (13091 /sec)
propagations              : 5982372580     (1681439 /sec)
conflict literals         : 414125653      (18.34 % deleted)

conflicts w/ DIP found    : 3558602        (81.03 % of conflicts)
conflicts w/ dangerous DIP: 0              (0.00 % of conflicts)
conflicts w/ DIP-learning : 1622           (0.04 % of conflicts)
decisions on ext vars     : 3419           (0.01 % of decisions)
total ext vars            : 450         
tried delete ext vars     : 2           
deleted ext vars          : 2           
max ext vars              : 448         

Memory used               : 510.00 MB
CPU time                  : 3557.89 s
DIP computation time      : 303.257 s (8.52 % of total time)
ER_sel time               : 6.51863 s
ER_add time               : 0.005815 s
ER_delC time              : 0 s
ER_delV time              : 0.000957 s
ER_sub time               : 8.14392 s
ER_stat time              : 0 s

INDETERMINATE
